p cnf 430 1488
-191 -103 0
-191 142 0
-191 -152 0
-191 114 0
-191 -92 0
191 103 -142 152 -114 92 0
-192 -106 0
-192 -79 0
-192 88 0
-192 5 0
-192 -84 0
192 106 79 -88 -5 84 0
-193 -105 0
-193 -113 0
-193 -13 0
-193 -89 0
-193 -146 0
193 105 113 13 89 146 0
-194 187 0
-194 50 0
-194 -13 0
-194 44 0
-194 -93 0
194 -187 -50 13 -44 93 0
-195 -60 0
-195 -75 0
-195 -72 0
-195 -96 0
-195 38 0
195 60 75 72 96 -38 0
191 192 193 194 195 0
-196 114 0
-196 58 0
-196 140 0
-196 -132 0
-196 -141 0
196 -114 -58 -140 132 141 0
-197 -133 0
-197 -100 0
-197 -131 0
-197 -52 0
-197 -53 0
197 133 100 131 52 53 0
-198 79 0
-198 3 0
-198 -65 0
-198 145 0
-198 140 0
198 -79 -3 65 -145 -140 0
-199 -53 0
-199 133 0
-199 -77 0
-199 187 0
-199 -32 0
199 53 -133 77 -187 32 0
-200 -56 0
-200 73 0
-200 154 0
-200 -190 0
-200 -22 0
200 56 -73 -154 190 22 0
196 197 198 199 200 0
-201 178 0
-201 43 0
-201 -177 0
-201 123 0
-201 -113 0
201 -178 -43 177 -123 113 0
-202 -190 0
-202 136 0
-202 35 0
-202 -128 0
-202 -158 0
202 190 -136 -35 128 158 0
-203 116 0
-203 -36 0
-203 76 0
-203 -124 0
-203 -182 0
203 -116 36 -76 124 182 0
-204 -41 0
-204 138 0
-204 -172 0
-204 -125 0
-204 45 0
204 41 -138 172 125 -45 0
-205 30 0
-205 137 0
-205 138 0
-205 -92 0
-205 28 0
205 -30 -137 -138 92 -28 0
201 202 203 204 205 0
-206 -101 0
-206 33 0
-206 81 0
-206 -66 0
-206 69 0
206 101 -33 -81 66 -69 0
-207 23 0
-207 -27 0
-207 -135 0
-207 42 0
-207 -153 0
207 -23 27 135 -42 153 0
-208 130 0
-208 148 0
-208 64 0
-208 -82 0
-208 50 0
208 -130 -148 -64 82 -50 0
-209 -101 0
-209 -174 0
-209 2 0
-209 18 0
-209 72 0
209 101 174 -2 -18 -72 0
-210 -77 0
-210 -84 0
-210 -149 0
-210 4 0
-210 89 0
210 77 84 149 -4 -89 0
206 207 208 209 210 0
-211 10 0
-211 180 0
-211 -50 0
-211 -25 0
-211 135 0
211 -10 -180 50 25 -135 0
-212 -34 0
-212 116 0
-212 -69 0
-212 108 0
-212 132 0
212 34 -116 69 -108 -132 0
-213 -174 0
-213 117 0
-213 -51 0
-213 93 0
-213 57 0
213 174 -117 51 -93 -57 0
-214 -162 0
-214 90 0
-214 51 0
-214 114 0
-214 -159 0
214 162 -90 -51 -114 159 0
-215 -174 0
-215 81 0
-215 -93 0
-215 -110 0
-215 66 0
215 174 -81 93 110 -66 0
211 212 213 214 215 0
-216 2 0
-216 -171 0
-216 43 0
-216 143 0
-216 183 0
216 -2 171 -43 -143 -183 0
-217 -71 0
-217 -80 0
-217 56 0
-217 54 0
-217 -69 0
217 71 80 -56 -54 69 0
-218 107 0
-218 161 0
-218 -79 0
-218 -37 0
-218 -122 0
218 -107 -161 79 37 122 0
-219 -27 0
-219 -189 0
-219 -7 0
-219 -13 0
-219 44 0
219 27 189 7 13 -44 0
-220 180 0
-220 -120 0
-220 45 0
-220 101 0
-220 -172 0
220 -180 120 -45 -101 172 0
216 217 218 219 220 0
-221 -133 0
-221 -177 0
-221 88 0
-221 -180 0
-221 36 0
221 133 177 -88 180 -36 0
-222 -133 0
-222 173 0
-222 -162 0
-222 -46 0
-222 150 0
222 133 -173 162 46 -150 0
-223 -91 0
-223 -125 0
-223 43 0
-223 -88 0
-223 -70 0
223 91 125 -43 88 70 0
-224 -55 0
-224 -26 0
-224 -33 0
-224 -16 0
-224 -42 0
224 55 26 33 16 42 0
-225 -149 0
-225 -186 0
-225 -44 0
-225 123 0
-225 12 0
225 149 186 44 -123 -12 0
221 222 223 224 225 0
-226 177 0
-226 56 0
-226 14 0
-226 184 0
-226 -163 0
226 -177 -56 -14 -184 163 0
-227 3 0
-227 31 0
-227 -4 0
-227 -72 0
-227 9 0
227 -3 -31 4 72 -9 0
-228 -78 0
-228 -73 0
-228 94 0
-228 51 0
-228 185 0
228 78 73 -94 -51 -185 0
-229 131 0
-229 -21 0
-229 -34 0
-229 157 0
-229 -105 0
229 -131 21 34 -157 105 0
-230 -6 0
-230 -52 0
-230 -135 0
-230 129 0
-230 37 0
230 6 52 135 -129 -37 0
226 227 228 229 230 0
-231 -64 0
-231 -9 0
-231 -184 0
-231 66 0
-231 -168 0
231 64 9 184 -66 168 0
-232 -185 0
-232 62 0
-232 -123 0
-232 -13 0
-232 169 0
232 185 -62 123 13 -169 0
-233 123 0
-233 87 0
-233 -108 0
-233 39 0
-233 124 0
233 -123 -87 108 -39 -124 0
-234 10 0
-234 -31 0
-234 54 0
-234 153 0
-234 17 0
234 -10 31 -54 -153 -17 0
-235 -184 0
-235 1 0
-235 126 0
-235 178 0
-235 -189 0
235 184 -1 -126 -178 189 0
231 232 233 234 235 0
-236 -23 0
-236 -130 0
-236 -70 0
-236 60 0
-236 34 0
236 23 130 70 -60 -34 0
-237 -31 0
-237 -80 0
-237 165 0
-237 -115 0
-237 135 0
237 31 80 -165 115 -135 0
-238 -6 0
-238 93 0
-238 138 0
-238 -188 0
-238 52 0
238 6 -93 -138 188 -52 0
-239 171 0
-239 -34 0
-239 53 0
-239 -77 0
-239 143 0
239 -171 34 -53 77 -143 0
-240 -164 0
-240 -104 0
-240 114 0
-240 -102 0
-240 28 0
240 164 104 -114 102 -28 0
236 237 238 239 240 0
-241 35 0
-241 -85 0
-241 -72 0
-241 -26 0
-241 44 0
241 -35 85 72 26 -44 0
-242 53 0
-242 -188 0
-242 112 0
-242 174 0
-242 69 0
242 -53 188 -112 -174 -69 0
-243 35 0
-243 183 0
-243 -25 0
-243 138 0
-243 -116 0
243 -35 -183 25 -138 116 0
-244 -145 0
-244 -126 0
-244 -84 0
-244 -118 0
-244 119 0
244 145 126 84 118 -119 0
-245 -91 0
-245 -114 0
-245 -110 0
-245 -116 0
-245 -41 0
245 91 114 110 116 41 0
241 242 243 244 245 0
-246 -89 0
-246 36 0
-246 59 0
-246 -6 0
-246 109 0
246 89 -36 -59 6 -109 0
-247 -153 0
-247 -34 0
-247 76 0
-247 -190 0
-247 67 0
247 153 34 -76 190 -67 0
-248 80 0
-248 94 0
-248 93 0
-248 148 0
-248 177 0
248 -80 -94 -93 -148 -177 0
-249 -105 0
-249 10 0
-249 100 0
-249 93 0
-249 -58 0
249 105 -10 -100 -93 58 0
-250 -109 0
-250 50 0
-250 99 0
-250 121 0
-250 176 0
250 109 -50 -99 -121 -176 0
246 247 248 249 250 0
-251 161 0
-251 63 0
-251 -89 0
-251 -62 0
-251 -2 0
251 -161 -63 89 62 2 0
-252 89 0
-252 173 0
-252 -157 0
-252 -13 0
-252 -77 0
252 -89 -173 157 13 77 0
-253 142 0
-253 -187 0
-253 95 0
-253 183 0
-253 -158 0
253 -142 187 -95 -183 158 0
-254 -39 0
-254 83 0
-254 115 0
-254 -41 0
-254 -130 0
254 39 -83 -115 41 130 0
-255 -166 0
-255 -159 0
-255 16 0
-255 181 0
-255 72 0
255 166 159 -16 -181 -72 0
251 252 253 254 255 0
-256 -95 0
-256 105 0
-256 170 0
-256 -130 0
-256 -41 0
256 95 -105 -170 130 41 0
-257 -14 0
-257 106 0
-257 132 0
-257 -9 0
-257 -102 0
257 14 -106 -132 9 102 0
-258 -106 0
-258 118 0
-258 -43 0
-258 148 0
-258 14 0
258 106 -118 43 -148 -14 0
-259 25 0
-259 -165 0
-259 -108 0
-259 -29 0
-259 150 0
259 -25 165 108 29 -150 0
-260 -108 0
-260 59 0
-260 -158 0
-260 31 0
-260 -38 0
260 108 -59 158 -31 38 0
256 257 258 259 260 0
-261 52 0
-261 -123 0
-261 -98 0
-261 -141 0
-261 -19 0
261 -52 123 98 141 19 0
-262 -125 0
-262 -65 0
-262 -10 0
-262 187 0
-262 -78 0
262 125 65 10 -187 78 0
-263 164 0
-263 87 0
-263 -7 0
-263 163 0
-263 -10 0
263 -164 -87 7 -163 10 0
-264 -103 0
-264 -84 0
-264 51 0
-264 169 0
-264 104 0
264 103 84 -51 -169 -104 0
-265 118 0
-265 108 0
-265 -33 0
-265 -95 0
-265 3 0
265 -118 -108 33 95 -3 0
261 262 263 264 265 0
-266 188 0
-266 70 0
-266 63 0
-266 -165 0
-266 -88 0
266 -188 -70 -63 165 88 0
-267 175 0
-267 -113 0
-267 -121 0
-267 188 0
-267 -151 0
267 -175 113 121 -188 151 0
-268 104 0
-268 19 0
-268 -139 0
-268 -167 0
-268 -130 0
268 -104 -19 139 167 130 0
-269 -158 0
-269 45 0
-269 -2 0
-269 -131 0
-269 176 0
269 158 -45 2 131 -176 0
-270 44 0
-270 4 0
-270 103 0
-270 182 0
-270 -168 0
270 -44 -4 -103 -182 168 0
266 267 268 269 270 0
-271 -88 0
-271 112 0
-271 159 0
-271 -76 0
-271 23 0
271 88 -112 -159 76 -23 0
-272 98 0
-272 112 0
-272 51 0
-272 -163 0
-272 -70 0
272 -98 -112 -51 163 70 0
-273 -2 0
-273 101 0
-273 3 0
-273 144 0
-273 186 0
273 2 -101 -3 -144 -186 0
-274 116 0
-274 150 0
-274 30 0
-274 -114 0
-274 -83 0
274 -116 -150 -30 114 83 0
-275 144 0
-275 43 0
-275 -2 0
-275 114 0
-275 58 0
275 -144 -43 2 -114 -58 0
271 272 273 274 275 0
-276 -161 0
-276 -103 0
-276 185 0
-276 -98 0
-276 57 0
276 161 103 -185 98 -57 0
-277 -158 0
-277 -108 0
-277 -153 0
-277 147 0
-277 -178 0
277 158 108 153 -147 178 0
-278 179 0
-278 15 0
-278 124 0
-278 83 0
-278 -88 0
278 -179 -15 -124 -83 88 0
-279 75 0
-279 69 0
-279 -55 0
-279 -103 0
-279 152 0
279 -75 -69 55 103 -152 0
-280 -158 0
-280 -156 0
-280 118 0
-280 164 0
-280 81 0
280 158 156 -118 -164 -81 0
276 277 278 279 280 0
-281 144 0
-281 7 0
-281 -62 0
-281 -164 0
-281 112 0
281 -144 -7 62 164 -112 0
-282 118 0
-282 117 0
-282 -167 0
-282 -34 0
-282 180 0
282 -118 -117 167 34 -180 0
-283 -119 0
-283 -105 0
-283 -182 0
-283 58 0
-283 -168 0
283 119 105 182 -58 168 0
-284 -41 0
-284 -118 0
-284 15 0
-284 52 0
-284 -6 0
284 41 118 -15 -52 6 0
-285 -96 0
-285 -161 0
-285 36 0
-285 73 0
-285 -114 0
285 96 161 -36 -73 114 0
281 282 283 284 285 0
-286 -92 0
-286 81 0
-286 53 0
-286 -82 0
-286 -130 0
286 92 -81 -53 82 130 0
-287 -106 0
-287 166 0
-287 -169 0
-287 150 0
-287 -114 0
287 106 -166 169 -150 114 0
-288 -178 0
-288 -32 0
-288 13 0
-288 -44 0
-288 -63 0
288 178 32 -13 44 63 0
-289 37 0
-289 88 0
-289 74 0
-289 137 0
-289 -121 0
289 -37 -88 -74 -137 121 0
-290 122 0
-290 76 0
-290 -81 0
-290 -97 0
-290 -164 0
290 -122 -76 81 97 164 0
286 287 288 289 290 0
-291 -44 0
-291 -93 0
-291 108 0
-291 119 0
-291 -64 0
291 44 93 -108 -119 64 0
-292 76 0
-292 -151 0
-292 -128 0
-292 60 0
-292 -78 0
292 -76 151 128 -60 78 0
-293 89 0
-293 -46 0
-293 -72 0
-293 -23 0
-293 -122 0
293 -89 46 72 23 122 0
-294 -49 0
-294 110 0
-294 -105 0
-294 84 0
-294 160 0
294 49 -110 105 -84 -160 0
-295 -17 0
-295 -26 0
-295 -134 0
-295 131 0
-295 58 0
295 17 26 134 -131 -58 0
291 292 293 294 295 0
-296 -34 0
-296 -166 0
-296 -21 0
-296 64 0
-296 118 0
296 34 166 21 -64 -118 0
-297 -102 0
-297 -43 0
-297 -173 0
-297 -51 0
-297 65 0
297 102 43 173 51 -65 0
-298 -132 0
-298 -125 0
-298 -180 0
-298 -167 0
-298 -153 0
298 132 125 180 167 153 0
-299 -166 0
-299 143 0
-299 28 0
-299 56 0
-299 -59 0
299 166 -143 -28 -56 59 0
-300 -148 0
-300 162 0
-300 -158 0
-300 -22 0
-300 96 0
300 148 -162 158 22 -96 0
296 297 298 299 300 0
-301 3 0
-301 -47 0
-301 163 0
-301 -100 0
-301 -150 0
301 -3 47 -163 100 150 0
-302 -157 0
-302 142 0
-302 -37 0
-302 179 0
-302 177 0
302 157 -142 37 -179 -177 0
-303 21 0
-303 176 0
-303 -45 0
-303 -159 0
-303 183 0
303 -21 -176 45 159 -183 0
-304 -96 0
-304 -40 0
-304 -125 0
-304 -75 0
-304 172 0
304 96 40 125 75 -172 0
-305 102 0
-305 -60 0
-305 163 0
-305 -74 0
-305 -139 0
305 -102 60 -163 74 139 0
301 302 303 304 305 0
-306 -130 0
-306 129 0
-306 -178 0
-306 -28 0
-306 17 0
306 130 -129 178 28 -17 0
-307 16 0
-307 110 0
-307 -130 0
-307 -30 0
-307 -84 0
307 -16 -110 130 30 84 0
-308 70 0
-308 -78 0
-308 190 0
-308 -13 0
-308 -29 0
308 -70 78 -190 13 29 0
-309 153 0
-309 115 0
-309 -93 0
-309 85 0
-309 -98 0
309 -153 -115 93 -85 98 0
-310 -38 0
-310 164 0
-310 -74 0
-310 -61 0
-310 -33 0
310 38 -164 74 61 33 0
306 307 308 309 310 0
-311 155 0
-311 172 0
-311 2 0
-311 12 0
-311 13 0
311 -155 -172 -2 -12 -13 0
-312 11 0
-312 170 0
-312 1 0
-312 -48 0
-312 64 0
312 -11 -170 -1 48 -64 0
-313 154 0
-313 169 0
-313 23 0
-313 126 0
-313 -151 0
313 -154 -169 -23 -126 151 0
-314 164 0
-314 6 0
-314 17 0
-314 -64 0
-314 110 0
314 -164 -6 -17 64 -110 0
-315 19 0
-315 134 0
-315 69 0
-315 11 0
-315 -52 0
315 -19 -134 -69 -11 52 0
311 312 313 314 315 0
-316 -181 0
-316 -56 0
-316 34 0
-316 27 0
-316 108 0
316 181 56 -34 -27 -108 0
-317 -59 0
-317 24 0
-317 -183 0
-317 23 0
-317 -100 0
317 59 -24 183 -23 100 0
-318 154 0
-318 127 0
-318 -20 0
-318 97 0
-318 171 0
318 -154 -127 20 -97 -171 0
-319 182 0
-319 -46 0
-319 63 0
-319 96 0
-319 160 0
319 -182 46 -63 -96 -160 0
-320 -34 0
-320 -66 0
-320 55 0
-320 57 0
-320 77 0
320 34 66 -55 -57 -77 0
316 317 318 319 320 0
-321 -37 0
-321 123 0
-321 -93 0
-321 142 0
-321 105 0
321 37 -123 93 -142 -105 0
-322 -93 0
-322 162 0
-322 180 0
-322 -110 0
-322 -87 0
322 93 -162 -180 110 87 0
-323 -68 0
-323 16 0
-323 107 0
-323 83 0
-323 -56 0
323 68 -16 -107 -83 56 0
-324 -57 0
-324 -177 0
-324 -130 0
-324 147 0
-324 -121 0
324 57 177 130 -147 121 0
-325 -100 0
-325 134 0
-325 163 0
-325 -186 0
-325 -44 0
325 100 -134 -163 186 44 0
321 322 323 324 325 0
-326 154 0
-326 -103 0
-326 -123 0
-326 38 0
-326 -11 0
326 -154 103 123 -38 11 0
-327 -93 0
-327 142 0
-327 96 0
-327 107 0
-327 -106 0
327 93 -142 -96 -107 106 0
-328 -142 0
-328 -56 0
-328 128 0
-328 111 0
-328 124 0
328 142 56 -128 -111 -124 0
-329 -126 0
-329 -7 0
-329 176 0
-329 -120 0
-329 189 0
329 126 7 -176 120 -189 0
-330 -34 0
-330 -84 0
-330 171 0
-330 -139 0
-330 22 0
330 34 84 -171 139 -22 0
326 327 328 329 330 0
-331 -95 0
-331 -93 0
-331 175 0
-331 122 0
-331 -134 0
331 95 93 -175 -122 134 0
-332 -150 0
-332 91 0
-332 -75 0
-332 -97 0
-332 93 0
332 150 -91 75 97 -93 0
-333 -56 0
-333 -35 0
-333 102 0
-333 -57 0
-333 -5 0
333 56 35 -102 57 5 0
-334 -84 0
-334 -47 0
-334 139 0
-334 -182 0
-334 -102 0
334 84 47 -139 182 102 0
-335 -161 0
-335 102 0
-335 186 0
-335 -63 0
-335 112 0
335 161 -102 -186 63 -112 0
331 332 333 334 335 0
-336 176 0
-336 -48 0
-336 1 0
-336 -55 0
-336 -29 0
336 -176 48 -1 55 29 0
-337 147 0
-337 41 0
-337 154 0
-337 -38 0
-337 89 0
337 -147 -41 -154 38 -89 0
-338 -147 0
-338 -104 0
-338 -54 0
-338 -22 0
-338 47 0
338 147 104 54 22 -47 0
-339 32 0
-339 123 0
-339 134 0
-339 173 0
-339 -113 0
339 -32 -123 -134 -173 113 0
-340 -18 0
-340 -2 0
-340 6 0
-340 -44 0
-340 134 0
340 18 2 -6 44 -134 0
336 337 338 339 340 0
-341 -165 0
-341 -181 0
-341 168 0
-341 109 0
-341 174 0
341 165 181 -168 -109 -174 0
-342 77 0
-342 -80 0
-342 -97 0
-342 -115 0
-342 -179 0
342 -77 80 97 115 179 0
-343 176 0
-343 32 0
-343 -139 0
-343 -25 0
-343 -21 0
343 -176 -32 139 25 21 0
-344 -24 0
-344 152 0
-344 98 0
-344 -141 0
-344 159 0
344 24 -152 -98 141 -159 0
-345 -70 0
-345 -64 0
-345 35 0
-345 -67 0
-345 69 0
345 70 64 -35 67 -69 0
341 342 343 344 345 0
-346 39 0
-346 -170 0
-346 59 0
-346 -171 0
-346 160 0
346 -39 170 -59 171 -160 0
-347 142 0
-347 -155 0
-347 4 0
-347 127 0
-347 -42 0
347 -142 155 -4 -127 42 0
-348 19 0
-348 -51 0
-348 -3 0
-348 140 0
-348 14 0
348 -19 51 3 -140 -14 0
-349 70 0
-349 2 0
-349 -87 0
-349 106 0
-349 155 0
349 -70 -2 87 -106 -155 0
-350 -104 0
-350 125 0
-350 103 0
-350 141 0
-350 150 0
350 104 -125 -103 -141 -150 0
346 347 348 349 350 0
-351 58 0
-351 172 0
-351 -164 0
-351 168 0
-351 147 0
351 -58 -172 164 -168 -147 0
-352 156 0
-352 103 0
-352 -85 0
-352 -69 0
-352 -130 0
352 -156 -103 85 69 130 0
-353 -122 0
-353 -88 0
-353 36 0
-353 39 0
-353 -99 0
353 122 88 -36 -39 99 0
-354 -11 0
-354 101 0
-354 -173 0
-354 50 0
-354 -42 0
354 11 -101 173 -50 42 0
-355 -47 0
-355 -141 0
-355 128 0
-355 7 0
-355 20 0
355 47 141 -128 -7 -20 0
351 352 353 354 355 0
-356 -114 0
-356 139 0
-356 -78 0
-356 -118 0
-356 -64 0
356 114 -139 78 118 64 0
-357 31 0
-357 115 0
-357 102 0
-357 124 0
-357 -68 0
357 -31 -115 -102 -124 68 0
-358 15 0
-358 26 0
-358 88 0
-358 -136 0
-358 82 0
358 -15 -26 -88 136 -82 0
-359 -89 0
-359 -117 0
-359 163 0
-359 -94 0
-359 -69 0
359 89 117 -163 94 69 0
-360 -41 0
-360 -185 0
-360 -110 0
-360 -111 0
-360 -81 0
360 41 185 110 111 81 0
356 357 358 359 360 0
-361 171 0
-361 129 0
-361 -77 0
-361 97 0
-361 145 0
361 -171 -129 77 -97 -145 0
-362 68 0
-362 -53 0
-362 -113 0
-362 -64 0
-362 -184 0
362 -68 53 113 64 184 0
-363 84 0
-363 -24 0
-363 135 0
-363 -116 0
-363 -160 0
363 -84 24 -135 116 160 0
-364 -184 0
-364 76 0
-364 109 0
-364 178 0
-364 43 0
364 184 -76 -109 -178 -43 0
-365 -24 0
-365 82 0
-365 172 0
-365 -76 0
-365 -155 0
365 24 -82 -172 76 155 0
361 362 363 364 365 0
-366 61 0
-366 -187 0
-366 -129 0
-366 167 0
-366 114 0
366 -61 187 129 -167 -114 0
-367 -40 0
-367 153 0
-367 116 0
-367 -44 0
-367 110 0
367 40 -153 -116 44 -110 0
-368 185 0
-368 -25 0
-368 103 0
-368 109 0
-368 161 0
368 -185 25 -103 -109 -161 0
-369 -30 0
-369 12 0
-369 -35 0
-369 -28 0
-369 -145 0
369 30 -12 35 28 145 0
-370 5 0
-370 75 0
-370 -182 0
-370 -64 0
-370 162 0
370 -5 -75 182 64 -162 0
366 367 368 369 370 0
-371 65 0
-371 -181 0
-371 179 0
-371 -146 0
-371 -68 0
371 -65 181 -179 146 68 0
-372 157 0
-372 -93 0
-372 43 0
-372 112 0
-372 -164 0
372 -157 93 -43 -112 164 0
-373 -66 0
-373 13 0
-373 -80 0
-373 58 0
-373 -183 0
373 66 -13 80 -58 183 0
-374 -109 0
-374 183 0
-374 64 0
-374 -158 0
-374 60 0
374 109 -183 -64 158 -60 0
-375 -1 0
-375 88 0
-375 -135 0
-375 112 0
-375 -4 0
375 1 -88 135 -112 4 0
371 372 373 374 375 0
-376 47 0
-376 166 0
-376 -110 0
-376 101 0
-376 27 0
376 -47 -166 110 -101 -27 0
-377 138 0
-377 -4 0
-377 140 0
-377 -149 0
-377 -46 0
377 -138 4 -140 149 46 0
-378 188 0
-378 177 0
-378 13 0
-378 -148 0
-378 6 0
378 -188 -177 -13 148 -6 0
-379 -41 0
-379 -129 0
-379 161 0
-379 15 0
-379 -181 0
379 41 129 -161 -15 181 0
-380 28 0
-380 6 0
-380 -25 0
-380 66 0
-380 4 0
380 -28 -6 25 -66 -4 0
376 377 378 379 380 0
-381 -105 0
-381 -69 0
-381 -30 0
-381 90 0
-381 61 0
381 105 69 30 -90 -61 0
-382 -126 0
-382 -16 0
-382 -125 0
-382 -107 0
-382 -101 0
382 126 16 125 107 101 0
-383 -167 0
-383 -58 0
-383 -28 0
-383 -57 0
-383 184 0
383 167 58 28 57 -184 0
-384 -4 0
-384 -116 0
-384 52 0
-384 -76 0
-384 -31 0
384 4 116 -52 76 31 0
-385 50 0
-385 143 0
-385 157 0
-385 -145 0
-385 18 0
385 -50 -143 -157 145 -18 0
381 382 383 384 385 0
-386 -51 0
-386 113 0
-386 -5 0
-386 -54 0
-386 -30 0
386 51 -113 5 54 30 0
-387 146 0
-387 165 0
-387 140 0
-387 76 0
-387 -15 0
387 -146 -165 -140 -76 15 0
-388 103 0
-388 113 0
-388 -46 0
-388 93 0
-388 47 0
388 -103 -113 46 -93 -47 0
-389 -83 0
-389 -161 0
-389 -30 0
-389 -154 0
-389 39 0
389 83 161 30 154 -39 0
-390 -75 0
-390 160 0
-390 -43 0
-390 -53 0
-390 -35 0
390 75 -160 43 53 35 0
386 387 388 389 390 0
-391 34 0
-391 173 0
-391 167 0
-391 -13 0
-391 120 0
391 -34 -173 -167 13 -120 0
-392 -5 0
-392 31 0
-392 -19 0
-392 -152 0
-392 127 0
392 5 -31 19 152 -127 0
-393 84 0
-393 85 0
-393 98 0
-393 127 0
-393 -71 0
393 -84 -85 -98 -127 71 0
-394 -79 0
-394 75 0
-394 -15 0
-394 -164 0
-394 -83 0
394 79 -75 15 164 83 0
-395 -11 0
-395 36 0
-395 64 0
-395 -79 0
-395 56 0
395 11 -36 -64 79 -56 0
391 392 393 394 395 0
-396 36 0
-396 -101 0
-396 -19 0
-396 123 0
-396 94 0
396 -36 101 19 -123 -94 0
-397 27 0
-397 60 0
-397 19 0
-397 -1 0
-397 -26 0
397 -27 -60 -19 1 26 0
-398 -25 0
-398 -43 0
-398 -175 0
-398 97 0
-398 -152 0
398 25 43 175 -97 152 0
-399 -180 0
-399 -100 0
-399 -48 0
-399 -12 0
-399 42 0
399 180 100 48 12 -42 0
-400 -182 0
-400 152 0
-400 -62 0
-400 -118 0
-400 -8 0
400 182 -152 62 118 8 0
396 397 398 399 400 0
-401 -78 0
-401 140 0
-401 146 0
-401 -47 0
-401 84 0
401 78 -140 -146 47 -84 0
-402 52 0
-402 79 0
-402 108 0
-402 72 0
-402 85 0
402 -52 -79 -108 -72 -85 0
-403 -61 0
-403 183 0
-403 -169 0
-403 -10 0
-403 -38 0
403 61 -183 169 10 38 0
-404 -82 0
-404 -40 0
-404 -162 0
-404 -23 0
-404 -93 0
404 82 40 162 23 93 0
-405 9 0
-405 -157 0
-405 56 0
-405 -98 0
-405 -76 0
405 -9 157 -56 98 76 0
401 402 403 404 405 0
-406 27 0
-406 -181 0
-406 43 0
-406 -125 0
-406 -175 0
406 -27 181 -43 125 175 0
-407 139 0
-407 -113 0
-407 77 0
-407 141 0
-407 147 0
407 -139 113 -77 -141 -147 0
-408 -61 0
-408 -2 0
-408 -136 0
-408 -98 0
-408 -161 0
408 61 2 136 98 161 0
-409 121 0
-409 115 0
-409 -69 0
-409 112 0
-409 -122 0
409 -121 -115 69 -112 122 0
-410 44 0
-410 -19 0
-410 72 0
-410 -109 0
-410 -184 0
410 -44 19 -72 109 184 0
406 407 408 409 410 0
-411 -111 0
-411 -172 0
-411 71 0
-411 159 0
-411 -155 0
411 111 172 -71 -159 155 0
-412 -146 0
-412 -60 0
-412 95 0
-412 -103 0
-412 47 0
412 146 60 -95 103 -47 0
-413 -17 0
-413 -179 0
-413 169 0
-413 94 0
-413 -101 0
413 17 179 -169 -94 101 0
-414 -134 0
-414 -43 0
-414 173 0
-414 -185 0
-414 -124 0
414 134 43 -173 185 124 0
-415 141 0
-415 61 0
-415 58 0
-415 161 0
-415 66 0
415 -141 -61 -58 -161 -66 0
411 412 413 414 415 0
-416 -123 0
-416 -173 0
-416 -88 0
-416 26 0
-416 -86 0
416 123 173 88 -26 86 0
-417 -30 0
-417 167 0
-417 -180 0
-417 57 0
-417 91 0
417 30 -167 180 -57 -91 0
-418 -62 0
-418 125 0
-418 -25 0
-418 -88 0
-418 173 0
418 62 -125 25 88 -173 0
-419 14 0
-419 -138 0
-419 -76 0
-419 67 0
-419 163 0
419 -14 138 76 -67 -163 0
-420 149 0
-420 66 0
-420 -37 0
-420 -27 0
-420 179 0
420 -149 -66 37 27 -179 0
416 417 418 419 420 0
-421 -37 0
-421 -121 0
-421 14 0
-421 187 0
-421 -38 0
421 37 121 -14 -187 38 0
-422 -174 0
-422 157 0
-422 -94 0
-422 -169 0
-422 -111 0
422 174 -157 94 169 111 0
-423 132 0
-423 8 0
-423 83 0
-423 88 0
-423 119 0
423 -132 -8 -83 -88 -119 0
-424 186 0
-424 -11 0
-424 -42 0
-424 -124 0
-424 -115 0
424 -186 11 42 124 115 0
-425 110 0
-425 97 0
-425 -179 0
-425 125 0
-425 85 0
425 -110 -97 179 -125 -85 0
421 422 423 424 425 0
-426 -154 0
-426 56 0
-426 -20 0
-426 -123 0
-426 -188 0
426 154 -56 20 123 188 0
-427 15 0
-427 -131 0
-427 -186 0
-427 -188 0
-427 -142 0
427 -15 131 186 188 142 0
-428 18 0
-428 115 0
-428 189 0
-428 -158 0
-428 152 0
428 -18 -115 -189 158 -152 0
-429 -153 0
-429 102 0
-429 -138 0
-429 -43 0
-429 -28 0
429 153 -102 138 43 28 0
-430 -162 0
-430 173 0
-430 -153 0
-430 74 0
-430 52 0
430 162 -173 153 -74 -52 0
426 427 428 429 430 0
